9553
9425
9214
9229
8409
9310
9137
8393
8694
8186
8741
9115
8409
8352
9352
9369
8826
9139
9592
9272
9086
8358
8691
9661
8967
9347
8955
8360
9195
9405
9042
9183
9941
9787
9921
9447
9009
9203
9685
8964
7457
8493
9712
8813
9528
9740
8851
8738
9158
8309
9373
10139
8557
8909
9565
8184
8939
8311
9179
9284
9482
8832
9412
7814
9360
9390
7972
9322
8145
8161
8670
7601
9543
10297
10090
